SAT
-1 -100 -99 -84 -98 -97 96 5 91 15 60 74 82 -41 71 -73 -38 -58 25 7 -62 44 64 31 50 -12 -89 90 54 -37 -27 -72 30 23 -43 -83 67 66 69 -57 78 52 47 -40 -14 6 85 -36 16 95 -46 -61 33 -19 -93 -59 -8 -94 77 39 56 29 -32 53 -87 68 92 88 -51 -10 3 9 26 -55 -81 65 24 -17 63 42 76 86 45 -80 -18 48 -34 2 -21 -35 28 70 4 49 11 -75 -13 -20 22 79 0
